(set-info :smt-lib-version 2.6)
(set-logic QF_NIA)
(set-info :source |
Generated by: Cristina Borralleras, Daniel Larraz, Albert Oliveras, Enric Rodriguez-Carbonell, Albert Rubio
Generated on: 2017-04-27
Generator: VeryMax
Application: Termination proving
Target solver: barcelogic
|)
(set-info :license "https://creativecommons.org/licenses/by/4.0/")
(set-info :category "industrial")
(set-info :status unknown)
(declare-fun Nl2main_i1 () Int)
(declare-fun Nl2main_i2 () Int)
(declare-fun lam0n0 () Int)
(declare-fun lam0n1 () Int)
(declare-fun lam0n2 () Int)
(declare-fun Nl2CT1 () Int)
(declare-fun Nl2CT2 () Int)
(declare-fun lam1n0 () Int)
(declare-fun lam1n1 () Int)
(declare-fun lam1n2 () Int)
(declare-fun lam2n0 () Int)
(declare-fun lam2n1 () Int)
(declare-fun lam2n2 () Int)
(declare-fun lam3n0 () Int)
(declare-fun lam3n1 () Int)
(declare-fun lam3n2 () Int)
(declare-fun lam4n0 () Int)
(declare-fun lam4n1 () Int)
(declare-fun lam4n2 () Int)
(declare-fun lam5n0 () Int)
(declare-fun lam5n1 () Int)
(declare-fun lam5n2 () Int)
(declare-fun lam6n0 () Int)
(declare-fun lam7n0 () Int)
(declare-fun main_i () Int)
(declare-fun undef2 () Int)
(declare-fun FV_main_i_2 () Int)
(declare-fun lam8n0 () Int)
(declare-fun lam8n1 () Int)
(declare-fun lam8n2 () Int)
(declare-fun lam8n3 () Int)
(declare-fun FV_main_i_3 () Int)
(assert ( and ( <= ( - 1 ) Nl2main_i1 ) ( <= Nl2main_i1 1 ) ( <= ( - 1 ) Nl2main_i2 ) ( <= Nl2main_i2 1 ) ))
(assert ( or ( and ( >= lam0n0 0 ) ( >= lam0n1 0 ) ( >= lam0n2 0 ) ( > ( + ( * 6 lam0n0 ) ( * Nl2CT1 lam0n1 ) ( * Nl2CT2 lam0n2 ) ( - 1 ) ) 0 ) ( = ( + ( * 1 lam0n0 ) ( * Nl2main_i1 lam0n1 ) ( * Nl2main_i2 lam0n2 ) ) 0 ) ) ( and ( >= lam1n0 0 ) ( >= lam1n1 0 ) ( >= lam1n2 0 ) ( > ( + ( * 6 lam1n0 ) ( * Nl2CT1 lam1n1 ) ( * Nl2CT2 lam1n2 ) ( - 1 ( + Nl2CT1 ( * Nl2main_i1 1 ) ) ) ) 0 ) ( = ( + ( * 1 lam1n0 ) ( * Nl2main_i1 lam1n1 ) ( * Nl2main_i2 lam1n2 ) ( - ( + 0 ( * Nl2main_i1 ( - 1 ) ) ) ) ) 0 ) ) ))
(assert ( or ( and ( >= lam0n0 0 ) ( >= lam0n1 0 ) ( >= lam0n2 0 ) ( > ( + ( * 6 lam0n0 ) ( * Nl2CT1 lam0n1 ) ( * Nl2CT2 lam0n2 ) ( - 1 ) ) 0 ) ( = ( + ( * 1 lam0n0 ) ( * Nl2main_i1 lam0n1 ) ( * Nl2main_i2 lam0n2 ) ) 0 ) ) ( and ( >= lam2n0 0 ) ( >= lam2n1 0 ) ( >= lam2n2 0 ) ( > ( + ( * 6 lam2n0 ) ( * Nl2CT1 lam2n1 ) ( * Nl2CT2 lam2n2 ) ( - 1 ( + Nl2CT2 ( * Nl2main_i2 1 ) ) ) ) 0 ) ( = ( + ( * 1 lam2n0 ) ( * Nl2main_i1 lam2n1 ) ( * Nl2main_i2 lam2n2 ) ( - ( + 0 ( * Nl2main_i2 ( - 1 ) ) ) ) ) 0 ) ) ))
(assert ( or ( and ( >= lam3n0 0 ) ( >= lam3n1 0 ) ( >= lam3n2 0 ) ( > ( + ( * 6 lam3n0 ) ( * Nl2CT1 lam3n1 ) ( * Nl2CT2 lam3n2 ) ( - 1 ) ) 0 ) ( = ( + ( * ( - 1 ) lam3n0 ) ( * Nl2main_i1 lam3n1 ) ( * Nl2main_i2 lam3n2 ) ) 0 ) ) ( and ( >= lam4n0 0 ) ( >= lam4n1 0 ) ( >= lam4n2 0 ) ( > ( + ( * 6 lam4n0 ) ( * Nl2CT1 lam4n1 ) ( * Nl2CT2 lam4n2 ) ( - 1 ( + Nl2CT1 ( * Nl2main_i1 ( - 1 ) ) ) ) ) 0 ) ( = ( + ( * ( - 1 ) lam4n0 ) ( * Nl2main_i1 lam4n1 ) ( * Nl2main_i2 lam4n2 ) ( - ( + 0 ( * Nl2main_i1 ( - 1 ) ) ) ) ) 0 ) ) ))
(assert ( or ( and ( >= lam3n0 0 ) ( >= lam3n1 0 ) ( >= lam3n2 0 ) ( > ( + ( * 6 lam3n0 ) ( * Nl2CT1 lam3n1 ) ( * Nl2CT2 lam3n2 ) ( - 1 ) ) 0 ) ( = ( + ( * ( - 1 ) lam3n0 ) ( * Nl2main_i1 lam3n1 ) ( * Nl2main_i2 lam3n2 ) ) 0 ) ) ( and ( >= lam5n0 0 ) ( >= lam5n1 0 ) ( >= lam5n2 0 ) ( > ( + ( * 6 lam5n0 ) ( * Nl2CT1 lam5n1 ) ( * Nl2CT2 lam5n2 ) ( - 1 ( + Nl2CT2 ( * Nl2main_i2 ( - 1 ) ) ) ) ) 0 ) ( = ( + ( * ( - 1 ) lam5n0 ) ( * Nl2main_i1 lam5n1 ) ( * Nl2main_i2 lam5n2 ) ( - ( + 0 ( * Nl2main_i2 ( - 1 ) ) ) ) ) 0 ) ) ))
(assert ( and ( <= ( + Nl2CT1 ( * Nl2main_i1 FV_main_i_2 ) ) 0 ) ( <= ( + Nl2CT2 ( * Nl2main_i2 FV_main_i_2 ) ) 0 ) ))
(assert ( and ( >= lam8n0 0 ) ( >= lam8n1 0 ) ( >= lam8n2 0 ) ( >= lam8n3 0 ) ( > ( + ( * ( - 5 ) lam8n0 ) ( * ( - 5 ) lam8n1 ) ( * Nl2CT1 lam8n2 ) ( * Nl2CT2 lam8n3 ) ( - 1 ) ) 0 ) ( = ( + ( * 1 lam8n0 ) ( * ( - 1 ) lam8n1 ) ( * Nl2main_i1 lam8n2 ) ( * Nl2main_i2 lam8n3 ) ) 0 ) ))
(assert ( and ( and ( <= ( + Nl2CT1 ( * Nl2main_i1 FV_main_i_3 ) ) 0 ) ( <= ( + Nl2CT2 ( * Nl2main_i2 FV_main_i_3 ) ) 0 ) ) ( or ( <= ( + 6 FV_main_i_3 ) 0 ) ( <= ( + 6 ( * ( - 1 ) FV_main_i_3 ) ) 0 ) ) ))
(check-sat)
(exit)
